p tw 123 136
1 2
2 36
3 14
4 5
5 6
6 7
7 8
8 16
9 10
10 11
11 12
12 13
13 15
14 25
15 16
15 19
16 17
17 18
18 41
19 20
20 21
20 24
21 22
22 23
23 24
24 26
25 29
26 27
27 28
29 30
30 31
30 34
31 32
32 33
33 34
34 35
35 37
36 47
37 38
38 39
39 40
40 41
41 42
42 43
43 44
43 19
44 45
45 46
46 48
47 58
48 49
49 50
50 51
51 52
51 121
52 53
53 54
54 55
55 56
55 70
56 57
57 59
57 82
58 69
59 60
60 61
60 112
61 62
62 63
62 98
63 64
64 65
64 78
65 66
66 67
67 68
67 90
68 116
69 80
70 71
71 72
72 73
72 16
73 74
74 75
75 76
76 77
77 16
78 79
79 81
80 91
81 16
82 83
83 84
84 85
85 86
86 87
87 88
88 89
89 16
90 92
91 102
92 93
93 94
94 95
95 96
96 97
97 16
98 99
99 100
100 101
101 103
102 113
103 104
104 105
104 109
105 106
106 107
107 108
108 16
109 110
110 111
111 16
112 114
113 3
114 115
115 16
116 117
117 118
118 119
119 120
120 16
121 122
122 123
123 4
123 9
